NAME : TW_45_seed_None_id_2
TYPE : CVRPTW
DIMENSION : 11
EDGE_WEIGHT_TYPE : EUC_2D
CAPACITY : 25
SERVICE_TIME : 100
LATE_COEFF : 0
NODE_COORD_SECTION
1	366	683
2	450	600
3	908	462
4	889	465
5	32	362
6	985	359
7	450	850
8	236	966
9	470	142
10	899	828
11	263	255
DEMAND_SECTION
1	0
2	6
3	7
4	8
5	5
6	9
7	10
8	2
9	7
10	6
11	4
TIME_WINDOW_SECTION
1	0	10000
2	0	10000
3	0	10000
4	0	10000
5	0	10000
6	0	10000
7	0	10000
8	0	10000
9	0	10000
10	0	10000
11	0	10000
DEPOT_SECTION
1
-1
EOF
